
Gurobi 7.0.2 (linux64, Python) logging started Mon Feb 27 09:12:29 2017


Gurobi 7.0.2 (linux64, Python) logging started Mon Feb 27 09:14:38 2017


Gurobi 7.0.2 (linux64, Python) logging started Mon Feb 27 09:14:57 2017


Gurobi 7.0.2 (linux64, Python) logging started Mon Feb 27 09:16:39 2017


Gurobi 7.0.2 (linux64, Python) logging started Mon Feb 27 09:19:56 2017


Gurobi 7.0.2 (linux64, Python) logging started Mon Feb 27 09:20:28 2017


Gurobi 7.0.2 (linux64, Python) logging started Mon Feb 27 09:24:50 2017


Gurobi 7.0.2 (linux64, Python) logging started Mon Feb 27 09:25:43 2017


Gurobi 7.0.2 (linux64, Python) logging started Mon Feb 27 09:28:12 2017


Gurobi 7.0.2 (linux64, Python) logging started Mon Feb 27 09:29:18 2017


Gurobi 7.0.2 (linux64, Python) logging started Mon Feb 27 09:32:36 2017


Gurobi 7.0.2 (linux64, Python) logging started Mon Feb 27 09:33:16 2017


Gurobi 7.0.2 (linux64, Python) logging started Mon Feb 27 09:33:19 2017


Gurobi 7.0.2 (linux64, Python) logging started Mon Feb 27 09:33:20 2017


Gurobi 7.0.2 (linux64, Python) logging started Mon Feb 27 09:34:05 2017


Gurobi 7.0.2 (linux64, Python) logging started Mon Feb 27 09:37:06 2017


Gurobi 7.0.2 (linux64, Python) logging started Mon Feb 27 09:44:07 2017


Gurobi 7.0.2 (linux64, Python) logging started Mon Feb 27 09:57:07 2017


Gurobi 7.0.2 (linux64, Python) logging started Mon Feb 27 10:08:21 2017


Gurobi 7.0.2 (linux64, Python) logging started Mon Feb 27 10:08:22 2017


Gurobi 7.0.2 (linux64, Python) logging started Mon Feb 27 10:08:25 2017


Gurobi 7.0.2 (linux64, Python) logging started Mon Feb 27 10:08:31 2017


Gurobi 7.0.2 (linux64, Python) logging started Mon Feb 27 10:09:30 2017


Gurobi 7.0.2 (linux64, Python) logging started Mon Feb 27 10:14:16 2017


Gurobi 7.0.2 (linux64, Python) logging started Mon Feb 27 10:14:20 2017


Gurobi 7.0.2 (linux64, Python) logging started Mon Feb 27 10:23:44 2017


Gurobi 7.0.2 (linux64, Python) logging started Mon Feb 27 10:23:46 2017


Gurobi 7.0.2 (linux64, Python) logging started Mon Feb 27 10:32:01 2017


Gurobi 7.0.2 (linux64, Python) logging started Mon Feb 27 10:36:49 2017


Gurobi 7.0.2 (linux64, Python) logging started Mon Feb 27 10:36:50 2017


Gurobi 7.0.2 (linux64, Python) logging started Mon Feb 27 10:45:33 2017


Gurobi 7.0.2 (linux64, Python) logging started Mon Feb 27 11:06:31 2017


Gurobi 7.0.2 (linux64, Python) logging started Mon Feb 27 11:17:47 2017


Gurobi 7.0.2 (linux64, Python) logging started Mon Feb 27 11:22:50 2017


Gurobi 7.0.2 (linux64, Python) logging started Mon Feb 27 11:23:17 2017


Gurobi 7.0.2 (linux64, Python) logging started Mon Feb 27 11:23:28 2017


Gurobi 7.0.2 (linux64, Python) logging started Mon Feb 27 11:44:15 2017


Gurobi 7.0.2 (linux64, Python) logging started Mon Feb 27 11:44:16 2017


Gurobi 7.0.2 (linux64, Python) logging started Mon Feb 27 11:45:04 2017


Gurobi 7.0.2 (linux64, Python) logging started Mon Feb 27 12:18:37 2017


Gurobi 7.0.2 (linux64, Python) logging started Mon Feb 27 12:43:26 2017


Gurobi 7.0.2 (linux64, Python) logging started Mon Feb 27 12:45:05 2017


Gurobi 7.0.2 (linux64, Python) logging started Mon Feb 27 12:46:25 2017


Gurobi 7.0.2 (linux64, Python) logging started Mon Feb 27 12:47:09 2017


Gurobi 7.0.2 (linux64, Python) logging started Mon Feb 27 13:14:55 2017


Gurobi 7.0.2 (linux64, Python) logging started Mon Feb 27 13:15:51 2017


Gurobi 7.0.2 (linux64, Python) logging started Mon Feb 27 13:17:57 2017


Gurobi 7.0.2 (linux64, Python) logging started Mon Feb 27 13:17:59 2017


Gurobi 7.0.2 (linux64, Python) logging started Mon Feb 27 13:28:15 2017


Gurobi 7.0.2 (linux64, Python) logging started Mon Feb 27 13:42:35 2017


Gurobi 7.0.2 (linux64, Python) logging started Mon Feb 27 13:42:52 2017


Gurobi 7.0.2 (linux64, Python) logging started Mon Feb 27 13:49:42 2017


Gurobi 7.0.2 (linux64, Python) logging started Mon Feb 27 14:19:35 2017


Gurobi 7.0.2 (linux64, Python) logging started Mon Feb 27 14:28:01 2017


Gurobi 7.0.2 (linux64, Python) logging started Mon Feb 27 14:30:00 2017


Gurobi 7.0.2 (linux64, Python) logging started Mon Feb 27 14:30:47 2017


Gurobi 7.0.2 (linux64, Python) logging started Mon Feb 27 14:31:05 2017


Gurobi 7.0.2 (linux64, Python) logging started Mon Feb 27 14:31:23 2017


Gurobi 7.0.2 (linux64, Python) logging started Mon Feb 27 14:48:46 2017


Gurobi 7.0.2 (linux64, Python) logging started Mon Feb 27 15:03:37 2017


Gurobi 7.0.2 (linux64, Python) logging started Mon Feb 27 15:03:44 2017


Gurobi 7.0.2 (linux64, Python) logging started Mon Feb 27 15:03:45 2017


Gurobi 7.0.2 (linux64, Python) logging started Mon Feb 27 15:03:47 2017


Gurobi 7.0.2 (linux64, Python) logging started Mon Feb 27 15:06:50 2017


Gurobi 7.0.2 (linux64, Python) logging started Mon Feb 27 15:15:32 2017


Gurobi 7.0.2 (linux64, Python) logging started Mon Feb 27 15:20:34 2017


Gurobi 7.0.2 (linux64, Python) logging started Mon Feb 27 15:24:00 2017


Gurobi 7.0.2 (linux64, Python) logging started Mon Feb 27 15:27:28 2017


Gurobi 7.0.2 (linux64, Python) logging started Mon Feb 27 15:28:53 2017


Gurobi 7.0.2 (linux64, Python) logging started Mon Feb 27 15:36:50 2017


Gurobi 7.0.2 (linux64, Python) logging started Mon Feb 27 15:40:45 2017


Gurobi 7.0.2 (linux64, Python) logging started Mon Feb 27 15:41:02 2017


Gurobi 7.0.2 (linux64, Python) logging started Mon Feb 27 15:41:14 2017


Gurobi 7.0.2 (linux64, Python) logging started Mon Feb 27 15:41:15 2017


Gurobi 7.0.2 (linux64, Python) logging started Mon Feb 27 15:42:38 2017


Gurobi 7.0.2 (linux64, Python) logging started Mon Feb 27 15:43:06 2017


Gurobi 7.0.2 (linux64, Python) logging started Mon Feb 27 15:51:52 2017


Gurobi 7.0.2 (linux64, Python) logging started Mon Feb 27 15:52:36 2017


Gurobi 7.0.2 (linux64, Python) logging started Mon Feb 27 15:58:14 2017


Gurobi 7.0.2 (linux64, Python) logging started Mon Feb 27 16:10:44 2017


Gurobi 7.0.2 (linux64, Python) logging started Mon Feb 27 16:13:36 2017


Gurobi 7.0.2 (linux64, Python) logging started Mon Feb 27 16:14:01 2017


Gurobi 7.0.2 (linux64, Python) logging started Mon Feb 27 16:16:19 2017


Gurobi 7.0.2 (linux64, Python) logging started Mon Feb 27 16:34:43 2017


Gurobi 7.0.2 (linux64, Python) logging started Mon Feb 27 16:34:50 2017


Gurobi 7.0.2 (linux64, Python) logging started Mon Feb 27 16:35:08 2017


Gurobi 7.0.2 (linux64, Python) logging started Mon Feb 27 16:35:12 2017


Gurobi 7.0.2 (linux64, Python) logging started Mon Feb 27 16:36:21 2017


Gurobi 7.0.2 (linux64, Python) logging started Mon Feb 27 16:53:11 2017


Gurobi 7.0.2 (linux64, Python) logging started Mon Feb 27 16:53:13 2017


Gurobi 7.0.2 (linux64, Python) logging started Mon Feb 27 16:53:50 2017

